solution status: optimal solution found
objective value:                     127500.072331415
d11(0,0)                                            1 	(obj:0)
d11(1,1)                                            1 	(obj:0)
d11(1,2)                                            1 	(obj:0)
d11(2,4)                                            1 	(obj:0)
d11(2,5)                                            1 	(obj:0)
d11(2,7)                                            1 	(obj:0)
d11(2,8)                                            1 	(obj:0)
d11(2,10)                                           1 	(obj:0)
d11(2,11)                                           1 	(obj:0)
d11(3,13)                                           1 	(obj:0)
d11(3,14)                                           1 	(obj:0)
d11(3,16)                                           1 	(obj:0)
d11(3,17)                                           1 	(obj:0)
d11(3,18)                                           1 	(obj:0)
d11(3,19)                                           1 	(obj:0)
d11(3,20)                                           1 	(obj:0)
d11(3,21)                                           1 	(obj:0)
d11(3,22)                                           1 	(obj:0)
d11(3,23)                                           1 	(obj:0)
d11(3,25)                                           1 	(obj:0)
d11(3,26)                                           1 	(obj:0)
d11(3,27)                                           1 	(obj:0)
d11(3,28)                                           1 	(obj:0)
d11(3,29)                                           1 	(obj:0)
d11(3,31)                                           1 	(obj:0)
d11(3,32)                                           1 	(obj:0)
d11(3,33)                                           1 	(obj:0)
d11(3,34)                                           1 	(obj:0)
d11(3,35)                                           1 	(obj:0)
d11(3,36)                                           1 	(obj:0)
d11(3,37)                                           1 	(obj:0)
d11(3,38)                                           1 	(obj:0)
d11(3,39)                                           1 	(obj:0)
d12(1,3)                                            1 	(obj:0)
d12(2,6)                                            1 	(obj:0)
d12(2,9)                                            1 	(obj:0)
d21(3,13)                                           1 	(obj:0)
d21(3,14)                                           1 	(obj:0)
d21(3,15)                                           1 	(obj:0)
d21(3,16)                                           1 	(obj:0)
d21(3,17)                                           1 	(obj:0)
d21(3,19)                                           1 	(obj:0)
d21(3,22)                                           1 	(obj:0)
d21(3,23)                                           1 	(obj:0)
d21(3,25)                                           1 	(obj:0)
d21(3,31)                                           1 	(obj:0)
STE(1,1)                             8540.12462384594 	(obj:0)
STE(0,0)                                        11025 	(obj:0)
STE(1,2)                             9536.89062717923 	(obj:0)
STE(1,3)                             10516.1878399347 	(obj:0)
STE(2,4)                             5635.88898724462 	(obj:0)
STE(2,5)                             6632.65499057791 	(obj:0)
STE(2,6)                             7658.12462384594 	(obj:0)
STE(2,7)                             6632.65499057791 	(obj:0)
STE(2,8)                              7629.4209939112 	(obj:0)
STE(2,9)                             8654.89062717922 	(obj:0)
STE(2,10)                            7611.95220333338 	(obj:0)
STE(2,11)                            8608.71820666667 	(obj:0)
STE(2,12)                             9634.1878399347 	(obj:0)
STE(3,13)                            2539.67078057795 	(obj:0)
STE(3,14)                            3536.43678391124 	(obj:0)
STE(3,15)                            4753.88898724462 	(obj:0)
STE(3,16)                            3536.43678391124 	(obj:0)
STE(3,17)                            4533.20278724453 	(obj:0)
STE(3,18)                            5750.65499057791 	(obj:0)
STE(3,19)                            4561.90641717927 	(obj:0)
STE(3,20)                            5558.67242051256 	(obj:0)
STE(3,21)                            6776.12462384594 	(obj:0)
STE(3,22)                            3536.43678391124 	(obj:0)
STE(3,23)                            4533.20278724453 	(obj:0)
STE(3,24)                            5750.65499057791 	(obj:0)
STE(3,25)                            4533.20278724453 	(obj:0)
STE(3,26)                            5529.96879057782 	(obj:0)
STE(3,27)                             6747.4209939112 	(obj:0)
STE(3,28)                            5558.67242051255 	(obj:0)
STE(3,29)                            6555.43842384584 	(obj:0)
STE(3,30)                            7772.89062717922 	(obj:0)
STE(3,31)                            4515.73399666671 	(obj:0)
STE(3,32)                                      5512.5 	(obj:0)
STE(3,33)                            6729.95220333338 	(obj:0)
STE(3,34)                                      5512.5 	(obj:0)
STE(3,35)                            6509.26600333329 	(obj:0)
STE(3,36)                            7726.71820666667 	(obj:0)
STE(3,37)                            6537.96963326803 	(obj:0)
STE(3,38)                            7534.73563660132 	(obj:0)
STE(3,39)                             8752.1878399347 	(obj:0)
y1(3,23)                             1095.70698300004 	(obj:0)
y1(3,25)                                  1992.796386 	(obj:0)
y1(3,26)                             1095.70698300004 	(obj:0)
y1(3,28)                                  1992.796386 	(obj:0)
y1(3,29)                             1095.70698300004 	(obj:0)
y1(3,31)                                  1992.796386 	(obj:0)
y1(3,32)                             1095.70698300004 	(obj:0)
y1(3,34)                                  1992.796386 	(obj:0)
y1(3,35)                             1095.70698300004 	(obj:0)
y1(3,37)                                  1992.796386 	(obj:0)
y1(3,38)                             1095.70698300004 	(obj:0)
BG(3)                                1204.56299667522 	(obj:10)
AVE(1)                               3199.95851117552 	(obj:0)
WB(2)                                3265.15049132519 	(obj:0)
AVE(2)                               3265.15049132519 	(obj:0)
AVE(3)                               3291.35535332476 	(obj:0)
WG(1)                                3199.95851117552 	(obj:10)
WG(3)                                3291.35535332476 	(obj:10)
BG(1)                                734.522545496562 	(obj:10)
BG(2)                                4319.60782647059 	(obj:10)
y1(1,1)                              1442.58783853866 	(obj:0)
y1(1,2)                              545.498435538693 	(obj:0)
y1(2,4)                              1820.01207294119 	(obj:0)
y1(2,5)                              922.922669941228 	(obj:0)
y1(2,7)                              1820.01207294119 	(obj:0)
y1(2,8)                              922.922669941228 	(obj:0)
y1(2,10)                             1820.01207294119 	(obj:0)
y1(2,11)                             922.922669941228 	(obj:0)
y1(3,13)                                  1992.796386 	(obj:0)
y1(3,14)                             1095.70698300004 	(obj:0)
y1(3,16)                                  1992.796386 	(obj:0)
y1(3,17)                             1095.70698300004 	(obj:0)
y1(3,19)                                  1992.796386 	(obj:0)
y1(3,20)                             1095.70698300004 	(obj:0)
y1(3,22)                                  1992.796386 	(obj:0)
y2(1,3)                              392.829305194422 	(obj:0)
